Maximize
  - 23 C0 + 13 C1 - 83 C2 + 17 C3 - 32 C4 - 84 C5 - 40 C6 + 45 C7
Subject To
 R0: - C0 - C1 - 2 C2 + 4 C3 - 5 C4 + 4 C5 - 4 C6 - 2 C7 <= 2
 R1: - 3 C0 - 4 C1 + 4 C3 - 5 C4 + 3 C5 - 2 C7 <= 3
 R2: 3 C0 - 3 C1 + 2 C3 - 4 C4 - 4 C5 - 5 C6 - C7 <= 3
 R3: - 4 C0 + 4 C1 - 4 C2 - C3 - 5 C4 - 4 C5 - 5 C6 + 4 C7 <= 5
 R4: C0 - 2 C1 - 4 C2 + C3 + C4 - 2 C5 - 3 C6 - 5 C7 <= 2
 R5: - 5 C0 - C1 + 4 C2 + 4 C3 - 5 C4 - C5 - 2 C6 + 3 C7 <= 0
 R6: C0 - 2 C1 - 3 C2 + 3 C3 + 3 C4 - 2 C5 + C6 - C7 <= 3
 R7: 2 C0 + 3 C1 - 4 C2 - 4 C3 + 4 C4 - 4 C5 + 3 C6 + 4 C7 <= 5
Bounds
 C0 free
 C1 free
 C2 free
 C3 free
 C4 free
 C5 free
 C6 free
 C7 free
Generals
 C0 C1 C2 C3 C4 C5 C6 C7
End
